c
c start with comments
c
p cnf 25 13
-12 -21 22 -27 0
-15 19 -28 10 0
-20 -18 -5 13 23 0
-10 -2 0
-4 12 11 0
17 -14 -13 0
19 4 5 2 27 0
18 -29 0
26 3 2 -30 0
-4 16 -15 0
16 30 13 16 2 0
-24 -27 12 0
-13 -24 -1 -12 -5 0